
Gurobi 11.0.0 (linux64) logging started Mon Jul 22 11:02:24 2024

Set parameter LogFile to value "/lustre1/scratch/348/vsc34888/JointResearch/05.Models/06.Benchmarking/M.Random_forest/RTS24_mod1_ByStages_nc10/openStarNet_RTS24_mod1_ByStages_nc10.log"
Set parameter Method to value 2
Set parameter MIPFocus to value 1
Set parameter Presolve to value 2
Set parameter RINS to value 100
Set parameter MIPGap to value 0.01
Set parameter Threads to value 36
Set parameter TimeLimit to value 259200
Set parameter IterationLimit to value 760000000
Gurobi Optimizer version 11.0.0 build v11.0.0rc2 (linux64 - "Rocky Linux 8.9 (Green Obsidian)")

CPU model: Intel(R) Xeon(R) Gold 6240 CPU @ 2.60GHz, instruction set [SSE2|AVX|AVX2|AVX512]
Thread count: 36 physical cores, 36 logical processors, using up to 36 threads

Optimize a model with 3553 rows, 2423 columns and 9690 nonzeros
Model fingerprint: 0x5ef3bdec
Variable types: 2402 continuous, 21 integer (21 binary)
Coefficient statistics:
  Matrix range     [9e-03, 4e+03]
  Objective range  [1e+00, 1e+00]
  Bounds range     [6e-05, 2e+00]
  RHS range        [6e-05, 1e+00]
Presolve removed 2115 rows and 1218 columns
Presolve time: 0.05s
Presolved: 1438 rows, 1205 columns, 5192 nonzeros
Variable types: 1184 continuous, 21 integer (21 binary)
Found heuristic solution: objective 76.4174315
Root relaxation presolve removed 2 rows and 2 columns
Root relaxation presolved: 1436 rows, 1203 columns, 5188 nonzeros

Root barrier log...

Ordering time: 0.03s

Barrier statistics:
 AA' NZ     : 2.391e+04
 Factor NZ  : 1.201e+05 (roughly 2 MB of memory)
 Factor Ops : 1.517e+07 (less than 1 second per iteration)
 Threads    : 36

                  Objective                Residual
Iter       Primal          Dual         Primal    Dual     Compl     Time
   0   2.71047159e+06 -4.88187917e+07  2.18e+01 1.13e+03  1.22e+05     0s
   1   7.69355329e+05 -2.70398016e+07  6.19e+00 1.10e+01  3.27e+04     0s
   2   3.11607158e+04 -1.11535742e+07  3.07e-01 4.28e-10  4.14e+03     0s
   3   7.42354849e+03 -1.51752058e+06  3.02e-02 4.37e-11  4.77e+02     0s
   4   3.98104828e+03 -4.75238440e+04  7.30e-05 2.18e-11  1.52e+01     0s
   5   1.29548843e+03 -9.70133872e+03  6.82e-08 1.16e-11  3.24e+00     0s
   6   4.88887682e+02 -3.27502482e+03  9.12e-09 7.28e-12  1.11e+00     0s
   7   2.39339087e+02 -7.82706668e+02  2.18e-09 7.28e-12  3.02e-01     0s
   8   8.52651643e+01 -7.07412516e+01  6.84e-11 7.28e-12  4.60e-02     0s
   9   5.83244229e+01 -1.78444332e+01  2.26e-11 7.28e-12  2.25e-02     0s
  10   5.07494547e+01  2.34915018e+01  1.16e-11 3.64e-12  8.04e-03     0s
  11   4.64224729e+01  3.61402385e+01  5.67e-12 7.28e-12  3.03e-03     0s
  12   4.43720339e+01  3.79557073e+01  3.01e-12 3.64e-12  1.89e-03     0s
  13   4.25628932e+01  4.15588346e+01  2.31e-12 3.64e-12  2.96e-04     0s
  14   4.22042418e+01  4.19514629e+01  6.53e-12 7.28e-12  7.46e-05     0s
  15   4.21163875e+01  4.20217593e+01  8.59e-12 7.28e-12  2.79e-05     0s
  16   4.20627617e+01  4.20333824e+01  1.10e-11 7.28e-12  8.67e-06     0s
  17   4.20557815e+01  4.20424428e+01  6.80e-12 7.28e-12  3.94e-06     0s
  18   4.20447523e+01  4.20440006e+01  2.78e-12 3.64e-12  2.22e-07     0s
  19   4.20441879e+01  4.20440763e+01  8.23e-11 3.64e-12  3.29e-08     0s
  20   4.20441372e+01  4.20441104e+01  7.60e-11 3.64e-12  7.91e-09     0s
  21   4.20441137e+01  4.20441136e+01  5.99e-10 7.28e-12  1.70e-11     0s

Barrier solved model in 21 iterations and 0.32 seconds (0.06 work units)
Optimal objective 4.20441137e+01


Root relaxation: objective 4.204411e+01, 181 iterations, 0.20 seconds (0.04 work units)

    Nodes    |    Current Node    |     Objective Bounds      |     Work
 Expl Unexpl |  Obj  Depth IntInf | Incumbent    BestBd   Gap | It/Node Time

     0     0   42.04411    0   12   76.41743   42.04411  45.0%     -    0s
H    0     0                      69.8382652   42.35356  39.4%     -    0s
     0     0   42.35356    0   10   69.83827   42.35356  39.4%     -    0s
H    0     0                      68.2168658   42.43317  37.8%     -    0s
     0     0   42.68282    0   10   68.21687   42.68282  37.4%     -    0s
H    0     0                      65.4379412   42.68282  34.8%     -    0s
     0     0   42.68282    0    9   65.43794   42.68282  34.8%     -    0s
H    0     0                      64.2072839   42.68282  33.5%     -    0s
     0     0   42.68282    0    9   64.20728   42.68282  33.5%     -    0s
H    0     0                      63.0969714   42.73744  32.3%     -    0s
     0     0   42.87186    0    7   63.09697   42.87186  32.1%     -    0s
     0     0   43.85486    0    7   63.09697   43.85486  30.5%     -    0s
     0     0   44.56210    0    8   63.09697   44.56210  29.4%     -    0s
H    0     0                      54.0096161   44.56210  17.5%     -    0s
     0     2   44.56210    0    8   54.00962   44.56210  17.5%     -    0s
H  130    69                      53.9470249   46.45101  13.9%  43.7    1s

Cutting planes:
  Gomory: 3
  Implied bound: 1
  MIR: 18

Explored 435 nodes (14694 simplex iterations) in 1.53 seconds (1.22 work units)
Thread count was 36 (of 36 available processors)

Solution count 8: 53.947 54.0096 63.097 ... 76.4174

Optimal solution found (tolerance 1.00e-02)
Best objective 5.394702493734e+01, best bound 5.394702493734e+01, gap 0.0000%

Gurobi 11.0.0 (linux64) logging started Mon Jul 22 11:02:26 2024

Set parameter LogFile to value "/lustre1/scratch/348/vsc34888/JointResearch/05.Models/06.Benchmarking/M.Random_forest/RTS24_mod1_ByStages_nc10/openStarNet_RTS24_mod1_ByStages_nc10.log"
Set parameter Method to value 2
Set parameter MIPFocus to value 1
Set parameter Presolve to value 2
Set parameter RINS to value 100
Set parameter MIPGap to value 0.01
Set parameter Threads to value 36
Set parameter TimeLimit to value 259200
Set parameter IterationLimit to value 760000000
Gurobi Optimizer version 11.0.0 build v11.0.0rc2 (linux64 - "Rocky Linux 8.9 (Green Obsidian)")

CPU model: Intel(R) Xeon(R) Gold 6240 CPU @ 2.60GHz, instruction set [SSE2|AVX|AVX2|AVX512]
Thread count: 36 physical cores, 36 logical processors, using up to 36 threads

Optimize a model with 3553 rows, 2402 columns and 8829 nonzeros
Model fingerprint: 0xf9a10086
Coefficient statistics:
  Matrix range     [9e-03, 4e+03]
  Objective range  [1e+00, 1e+00]
  Bounds range     [6e-05, 2e+00]
  RHS range        [6e-05, 1e+01]
Presolve removed 2980 rows and 1373 columns
Presolve time: 0.00s
Presolved: 573 rows, 1049 columns, 2468 nonzeros

Ordering time: 0.00s

Barrier statistics:
 AA' NZ     : 1.310e+03
 Factor NZ  : 4.730e+03 (roughly 1 MB of memory)
 Factor Ops : 5.702e+04 (less than 1 second per iteration)
 Threads    : 1

                  Objective                Residual
Iter       Primal          Dual         Primal    Dual     Compl     Time
   0   8.08039798e+05 -1.26894353e+07  5.30e+00 3.12e+03  4.51e+04     0s
   1   6.73248302e+04 -7.38592324e+06  3.59e-01 3.95e-11  6.04e+03     0s
   2   3.01615769e+04 -1.90264228e+06  6.92e-02 4.90e-11  1.23e+03     0s
   3   1.40680670e+04 -1.94674086e+05  4.02e-04 2.72e-11  1.16e+02     0s
   4   3.49895823e+03 -1.31265299e+04  1.07e-08 7.28e-12  9.27e+00     0s
   5   6.43624986e+02 -3.30884811e+03  4.46e-10 1.46e-11  2.20e+00     0s
   6   3.04046400e+02 -1.11157087e+03  5.70e-11 3.64e-12  7.89e-01     0s
   7   1.17452969e+02 -1.55747108e+02  2.35e-12 1.46e-11  1.52e-01     0s
   8   6.38183279e+01  2.51175205e+01  1.46e-13 7.28e-12  2.16e-02     0s
   9   5.57253428e+01  4.73547622e+01  7.88e-14 7.28e-12  4.67e-03     0s
  10   5.44789275e+01  5.21261034e+01  1.00e-12 7.28e-12  1.31e-03     0s
  11   5.40389183e+01  5.36280848e+01  8.74e-13 1.46e-11  2.29e-04     0s
  12   5.39548429e+01  5.39143617e+01  8.70e-13 7.28e-12  2.26e-05     0s
  13   5.39473031e+01  5.39467208e+01  8.20e-14 1.46e-11  3.25e-07     0s
  14   5.39470252e+01  5.39470246e+01  2.67e-13 1.46e-11  3.25e-10     0s
  15   5.39470249e+01  5.39470249e+01  3.30e-13 7.28e-12  3.25e-13     0s

Barrier solved model in 15 iterations and 0.02 seconds (0.01 work units)
Optimal objective 5.39470249e+01

Crossover log...

     129 DPushes remaining with DInf 0.0000000e+00                 0s
       0 DPushes remaining with DInf 0.0000000e+00                 0s

      25 PPushes remaining with PInf 0.0000000e+00                 0s
       0 PPushes remaining with PInf 0.0000000e+00                 0s

  Push phase complete: Pinf 0.0000000e+00, Dinf 3.4017667e-13      0s

Iteration    Objective       Primal Inf.    Dual Inf.      Time
      29    5.3947025e+01   0.000000e+00   0.000000e+00      0s

Use crossover to convert LP symmetric solution to basic solution...
Crossover log...

       0 DPushes remaining with DInf 0.0000000e+00                 0s

      18 PPushes remaining with PInf 0.0000000e+00                 0s
       0 PPushes remaining with PInf 0.0000000e+00                 0s

  Push phase complete: Pinf 0.0000000e+00, Dinf 4.7615481e-13      0s

Iteration    Objective       Primal Inf.    Dual Inf.      Time
      55    5.3947025e+01   0.000000e+00   0.000000e+00      0s

Solved in 55 iterations and 0.02 seconds (0.01 work units)
Optimal objective  5.394702494e+01

Gurobi 11.0.0 (linux64) logging started Mon Jul 22 16:14:27 2024

Set parameter LogFile to value "/lustre1/scratch/348/vsc34888/JointResearch/05.Models/06.Benchmarking/M.Random_forest/RTS24_mod1_ByStages_nc10/openStarNet_RTS24_mod1_ByStages_nc10.log"
Set parameter Method to value 2
Set parameter MIPFocus to value 1
Set parameter Presolve to value 2
Set parameter RINS to value 100
Set parameter MIPGap to value 0.01
Set parameter Threads to value 36
Set parameter TimeLimit to value 259200
Set parameter IterationLimit to value 760000000
Gurobi Optimizer version 11.0.0 build v11.0.0rc2 (linux64 - "Rocky Linux 8.9 (Green Obsidian)")

CPU model: Intel(R) Xeon(R) Gold 6240 CPU @ 2.60GHz, instruction set [SSE2|AVX|AVX2|AVX512]
Thread count: 36 physical cores, 36 logical processors, using up to 36 threads

Optimize a model with 3553 rows, 2423 columns and 9690 nonzeros
Model fingerprint: 0xfec4d32c
Variable types: 2402 continuous, 21 integer (21 binary)
Coefficient statistics:
  Matrix range     [9e-03, 4e+03]
  Objective range  [1e+00, 1e+00]
  Bounds range     [6e-05, 2e+00]
  RHS range        [6e-05, 1e+00]
Presolve removed 2115 rows and 1218 columns
Presolve time: 0.04s
Presolved: 1438 rows, 1205 columns, 5192 nonzeros
Variable types: 1184 continuous, 21 integer (21 binary)
Found heuristic solution: objective 76.4174315
Root relaxation presolve removed 2 rows and 2 columns
Root relaxation presolved: 1436 rows, 1203 columns, 5188 nonzeros

Root barrier log...

Ordering time: 0.03s

Barrier statistics:
 AA' NZ     : 2.391e+04
 Factor NZ  : 1.241e+05 (roughly 2 MB of memory)
 Factor Ops : 1.594e+07 (less than 1 second per iteration)
 Threads    : 36

                  Objective                Residual
Iter       Primal          Dual         Primal    Dual     Compl     Time
   0   2.05828443e+06 -4.91844480e+07  1.66e+01 1.13e+03  9.68e+04     0s
   1   5.28741339e+05 -2.27875021e+07  4.27e+00 7.24e-11  2.29e+04     0s
   2   6.76563946e+04 -1.06892793e+07  5.92e-01 2.32e-09  4.74e+03     0s
   3   2.04668361e+04 -1.53133189e+06  1.85e-01 2.83e-11  6.39e+02     0s
   4   4.50660465e+03 -2.92902424e+05  3.02e-03 2.47e-11  8.89e+01     0s
   5   3.19232492e+03 -2.63340785e+04  1.07e-06 1.47e-11  8.71e+00     0s
   6   6.32621461e+02 -3.52577984e+03  3.03e-13 7.28e-12  1.23e+00     0s
   7   3.39342234e+02 -7.80782018e+02  1.89e-13 7.28e-12  3.31e-01     0s
   8   9.29784060e+01 -2.52659744e+02  1.07e-13 7.28e-12  1.02e-01     0s
   9   6.43527304e+01 -2.81725241e+01  1.39e-13 7.28e-12  2.73e-02     0s
  10   5.04181445e+01  1.32239143e+01  7.31e-13 7.28e-12  1.10e-02     0s
  11   4.58863877e+01  3.67287576e+01  7.00e-13 1.82e-12  2.70e-03     0s
  12   4.28227069e+01  4.02935426e+01  8.23e-13 3.64e-12  7.46e-04     0s
  13   4.24108486e+01  4.11243117e+01  2.65e-13 3.64e-12  3.80e-04     0s
  14   4.22005753e+01  4.17928013e+01  1.48e-12 7.28e-12  1.20e-04     0s
  15   4.21555268e+01  4.19703807e+01  2.54e-12 7.28e-12  5.46e-05     0s
  16   4.20660076e+01  4.20297268e+01  8.01e-12 7.28e-12  1.07e-05     0s
  17   4.20486503e+01  4.20417842e+01  2.80e-12 3.64e-12  2.03e-06     0s
  18   4.20443181e+01  4.20439069e+01  2.73e-12 1.46e-11  1.21e-07     0s
  19   4.20441426e+01  4.20440910e+01  5.06e-10 7.28e-12  1.52e-08     0s
  20   4.20441164e+01  4.20441108e+01  8.19e-10 1.82e-12  1.67e-09     0s
  21   4.20441138e+01  4.20441136e+01  3.14e-09 7.28e-12  1.69e-11     0s

Barrier solved model in 21 iterations and 0.34 seconds (0.06 work units)
Optimal objective 4.20441138e+01


Root relaxation: objective 4.204411e+01, 180 iterations, 0.23 seconds (0.04 work units)

    Nodes    |    Current Node    |     Objective Bounds      |     Work
 Expl Unexpl |  Obj  Depth IntInf | Incumbent    BestBd   Gap | It/Node Time

     0     0   42.04411    0   12   76.41743   42.04411  45.0%     -    0s
H    0     0                      69.8382652   42.31987  39.4%     -    0s
     0     0   42.31987    0    9   69.83827   42.31987  39.4%     -    0s
H    0     0                      68.2168658   42.40936  37.8%     -    0s
     0     0   42.46895    0    8   68.21687   42.46895  37.7%     -    0s
H    0     0                      65.4379412   42.64713  34.8%     -    0s
     0     0   42.68282    0    8   65.43794   42.68282  34.8%     -    0s
     0     0   42.68282    0    8   65.43794   42.68282  34.8%     -    0s
H    0     0                      59.8009203   42.76229  28.5%     -    0s
     0     0   42.76229    0    7   59.80092   42.76229  28.5%     -    0s
H    0     0                      54.7645771   42.87186  21.7%     -    0s
H    0     0                      54.0096161   42.87186  20.6%     -    0s
     0     0   43.09772    0    7   54.00962   43.09772  20.2%     -    0s
     0     0   44.31851    0    7   54.00962   44.31851  17.9%     -    0s
H    0     0                      53.9470249   44.31851  17.8%     -    0s
     0     2   44.31851    0    7   53.94702   44.31851  17.8%     -    0s

Cutting planes:
  Gomory: 2
  Implied bound: 1
  MIR: 22

Explored 405 nodes (13485 simplex iterations) in 1.41 seconds (0.91 work units)
Thread count was 36 (of 36 available processors)

Solution count 8: 53.947 54.0096 54.7646 ... 76.4174

Optimal solution found (tolerance 1.00e-02)
Best objective 5.394702493734e+01, best bound 5.394702493734e+01, gap 0.0000%

Gurobi 11.0.0 (linux64) logging started Mon Jul 22 16:14:28 2024

Set parameter LogFile to value "/lustre1/scratch/348/vsc34888/JointResearch/05.Models/06.Benchmarking/M.Random_forest/RTS24_mod1_ByStages_nc10/openStarNet_RTS24_mod1_ByStages_nc10.log"
Set parameter Method to value 2
Set parameter MIPFocus to value 1
Set parameter Presolve to value 2
Set parameter RINS to value 100
Set parameter MIPGap to value 0.01
Set parameter Threads to value 36
Set parameter TimeLimit to value 259200
Set parameter IterationLimit to value 760000000
Gurobi Optimizer version 11.0.0 build v11.0.0rc2 (linux64 - "Rocky Linux 8.9 (Green Obsidian)")

CPU model: Intel(R) Xeon(R) Gold 6240 CPU @ 2.60GHz, instruction set [SSE2|AVX|AVX2|AVX512]
Thread count: 36 physical cores, 36 logical processors, using up to 36 threads

Optimize a model with 3553 rows, 2402 columns and 8829 nonzeros
Model fingerprint: 0xa6f024a8
Coefficient statistics:
  Matrix range     [9e-03, 4e+03]
  Objective range  [1e+00, 1e+00]
  Bounds range     [6e-05, 2e+00]
  RHS range        [6e-05, 1e+01]
Presolve removed 2949 rows and 1329 columns
Presolve time: 0.00s
Presolved: 604 rows, 1083 columns, 2639 nonzeros

Ordering time: 0.00s

Barrier statistics:
 AA' NZ     : 1.348e+03
 Factor NZ  : 4.665e+03 (roughly 1 MB of memory)
 Factor Ops : 5.565e+04 (less than 1 second per iteration)
 Threads    : 1

                  Objective                Residual
Iter       Primal          Dual         Primal    Dual     Compl     Time
   0   6.24886971e+05 -1.24784265e+07  3.98e+00 3.12e+03  3.56e+04     0s
   1   6.69519531e+04 -6.46722187e+06  3.49e-01 4.31e-11  5.35e+03     0s
   2   2.87271628e+04 -1.22214792e+06  5.94e-02 2.62e-11  7.98e+02     0s
   3   1.18057023e+04 -1.18699695e+05  4.83e-13 2.91e-11  7.27e+01     0s
   4   1.71401651e+03 -7.53325057e+03  2.19e-13 1.46e-11  5.15e+00     0s
   5   5.07887373e+02 -1.65293628e+03  1.53e-13 7.28e-12  1.20e+00     0s
   6   2.17649377e+02 -5.87954145e+02  4.71e-14 7.28e-12  4.49e-01     0s
   7   9.34195337e+01 -4.85603268e+01  5.60e-14 3.64e-12  7.91e-02     0s
   8   5.92325594e+01  3.90168935e+01  1.47e-14 7.28e-12  1.13e-02     0s
   9   5.49707780e+01  5.11727356e+01  1.44e-13 7.28e-12  2.12e-03     0s
  10   5.41910689e+01  5.32587017e+01  5.79e-13 1.46e-11  5.20e-04     0s
  11   5.39754545e+01  5.38262185e+01  1.52e-13 3.64e-12  8.32e-05     0s
  12   5.39496237e+01  5.39322546e+01  3.97e-13 1.46e-11  9.68e-06     0s
  13   5.39470639e+01  5.39469613e+01  1.94e-13 7.28e-12  5.72e-08     0s
  14   5.39470250e+01  5.39470249e+01  2.84e-13 3.64e-12  5.72e-11     0s
  15   5.39470249e+01  5.39470249e+01  2.25e-13 3.64e-12  5.72e-14     0s

Barrier solved model in 15 iterations and 0.02 seconds (0.01 work units)
Optimal objective 5.39470249e+01

Crossover log...

     129 DPushes remaining with DInf 0.0000000e+00                 0s
       0 DPushes remaining with DInf 0.0000000e+00                 0s

      25 PPushes remaining with PInf 0.0000000e+00                 0s
       0 PPushes remaining with PInf 0.0000000e+00                 0s

  Push phase complete: Pinf 0.0000000e+00, Dinf 5.1030187e-13      0s

Iteration    Objective       Primal Inf.    Dual Inf.      Time
      29    5.3947025e+01   0.000000e+00   0.000000e+00      0s

Use crossover to convert LP symmetric solution to basic solution...
Crossover log...

      17 PPushes remaining with PInf 0.0000000e+00                 0s
       0 PPushes remaining with PInf 0.0000000e+00                 0s

  Push phase complete: Pinf 0.0000000e+00, Dinf 7.0711064e-13      0s

Iteration    Objective       Primal Inf.    Dual Inf.      Time
      49    5.3947025e+01   0.000000e+00   0.000000e+00      0s

Solved in 49 iterations and 0.02 seconds (0.01 work units)
Optimal objective  5.394702494e+01

Gurobi 10.0.0 (win64) logging started Wed Jul 24 16:15:20 2024

Set parameter LogFile to value "C:\Users\ealvarezq\Documents\GitHub\Comillas\Models\JointResearch\05. Models\06.Benchmarking\M.Random_forest\RTS24_mod1_ByStages_nc10/openStarNet_RTS24_mod1_ByStages_nc10.log"
Set parameter Method to value 2
Set parameter MIPFocus to value 1
Set parameter Presolve to value 2
Set parameter RINS to value 100
Set parameter MIPGap to value 0.01
Set parameter Threads to value 9
Set parameter TimeLimit to value 259200
Set parameter IterationLimit to value 760000000
Gurobi Optimizer version 10.0.0 build v10.0.0rc2 (win64)

CPU model: Intel(R) Core(TM) i7-8700 CPU @ 3.20GHz, instruction set [SSE2|AVX|AVX2]
Thread count: 6 physical cores, 12 logical processors, using up to 9 threads

Optimize a model with 3553 rows, 2424 columns and 9692 nonzeros
Model fingerprint: 0xbf72e0e1
Variable types: 2403 continuous, 21 integer (21 binary)
Coefficient statistics:
  Matrix range     [3e-02, 3e+03]
  Objective range  [1e+00, 1e+00]
  Bounds range     [3e-03, 2e+00]
  RHS range        [3e-03, 1e+00]
Presolve removed 2113 rows and 1213 columns
Presolve time: 0.01s
Presolved: 1440 rows, 1211 columns, 5200 nonzeros
Variable types: 1190 continuous, 21 integer (21 binary)
Found heuristic solution: objective 184.7602694
Root relaxation presolve removed 8 rows and 8 columns
Root relaxation presolved: 1432 rows, 1203 columns, 5184 nonzeros

Root barrier log...

Ordering time: 0.02s

Barrier statistics:
 AA' NZ     : 2.390e+04
 Factor NZ  : 1.244e+05 (roughly 2 MB of memory)
 Factor Ops : 1.593e+07 (less than 1 second per iteration)
 Threads    : 9

                  Objective                Residual
Iter       Primal          Dual         Primal    Dual     Compl     Time
   0   3.06397649e+06 -5.28310361e+07  2.25e+01 7.06e+02  1.39e+05     0s
   1   8.87028434e+05 -3.01623730e+07  6.43e+00 6.96e+01  3.79e+04     0s
   2   2.35129054e+04 -1.21821755e+07  1.47e-01 1.09e-10  4.06e+03     0s
   3   8.56798801e+03 -1.46928800e+06  2.76e-03 5.64e-11  4.39e+02     0s
   4   5.82291582e+03 -3.57593528e+04  3.77e-13 1.09e-11  1.23e+01     0s
   5   1.37589905e+03 -1.23158726e+04  3.33e-13 5.17e-12  4.04e+00     0s
   6   3.61560801e+02 -2.53480237e+03  9.15e-14 3.29e-12  8.55e-01     0s
   7   1.40206139e+02 -4.95790825e+02  1.38e-13 3.61e-12  1.88e-01     0s
   8   4.53717602e+01 -5.05761436e+01  2.74e-13 5.59e-12  2.83e-02     0s
   9   2.68284810e+01 -3.95870020e+00  2.80e-13 2.93e-12  9.09e-03     0s
  10   2.12122095e+01  1.54543890e+01  1.59e-13 3.17e-12  1.70e-03     0s
  11   2.03782857e+01  1.88898225e+01  4.70e-13 2.90e-12  4.40e-04     0s
  12   1.97012672e+01  1.93773230e+01  6.54e-12 7.18e-12  9.57e-05     0s
  13   1.95855397e+01  1.95196574e+01  1.03e-10 8.99e-12  1.95e-05     0s
  14   1.95643567e+01  1.95579677e+01  7.04e-10 5.27e-12  1.89e-06     0s
  15   1.95607268e+01  1.95603992e+01  5.55e-10 4.66e-12  9.68e-08     0s
  16   1.95604932e+01  1.95604739e+01  6.48e-11 5.16e-12  5.71e-09     0s
  17   1.95604758e+01  1.95604758e+01  6.60e-10 4.07e-12  2.26e-12     0s

Barrier solved model in 17 iterations and 0.10 seconds (0.05 work units)
Optimal objective 1.95604758e+01


Root relaxation: objective 1.956048e+01, 114 iterations, 0.07 seconds (0.03 work units)

    Nodes    |    Current Node    |     Objective Bounds      |     Work
 Expl Unexpl |  Obj  Depth IntInf | Incumbent    BestBd   Gap | It/Node Time

     0     0   19.56048    0    7  184.76027   19.56048  89.4%     -    0s
H    0     0                     154.5970304   19.56048  87.3%     -    0s
H    0     0                     138.0340134   19.84374  85.6%     -    0s
     0     0   19.84374    0    8  138.03401   19.84374  85.6%     -    0s
H    0     0                     131.6025483   19.84374  84.9%     -    0s
     0     0   19.96439    0   10  131.60255   19.96439  84.8%     -    0s
     0     0   19.96461    0   11  131.60255   19.96461  84.8%     -    0s
H    0     0                     121.2908767   19.98218  83.5%     -    0s
     0     0   19.98218    0    9  121.29088   19.98218  83.5%     -    0s
H    0     0                     107.5087648   19.98218  81.4%     -    0s
H    0     0                     100.2028454   19.98218  80.1%     -    0s
     0     0   19.98218    0    9  100.20285   19.98218  80.1%     -    0s
H    0     0                      94.8205406   19.98218  78.9%     -    0s
     0     0   19.98218    0    9   94.82054   19.98218  78.9%     -    0s
H    0     0                      36.7498196   19.98218  45.6%     -    0s
     0     2   19.98218    0    9   36.74982   19.98218  45.6%     -    0s

Cutting planes:
  Gomory: 2
  MIR: 20

Explored 1549 nodes (52357 simplex iterations) in 3.42 seconds (2.98 work units)
Thread count was 9 (of 12 available processors)

Solution count 9: 36.7498 94.8205 100.203 ... 184.76

Optimal solution found (tolerance 1.00e-02)
Best objective 3.674981959805e+01, best bound 3.674981959805e+01, gap 0.0000%

Gurobi 10.0.0 (win64) logging started Wed Jul 24 16:15:24 2024

Set parameter LogFile to value "C:\Users\ealvarezq\Documents\GitHub\Comillas\Models\JointResearch\05. Models\06.Benchmarking\M.Random_forest\RTS24_mod1_ByStages_nc10/openStarNet_RTS24_mod1_ByStages_nc10.log"
Set parameter Method to value 2
Set parameter MIPFocus to value 1
Set parameter Presolve to value 2
Set parameter RINS to value 100
Set parameter MIPGap to value 0.01
Set parameter Threads to value 9
Set parameter TimeLimit to value 259200
Set parameter IterationLimit to value 760000000
Gurobi Optimizer version 10.0.0 build v10.0.0rc2 (win64)

CPU model: Intel(R) Core(TM) i7-8700 CPU @ 3.20GHz, instruction set [SSE2|AVX|AVX2]
Thread count: 6 physical cores, 12 logical processors, using up to 9 threads

Optimize a model with 3553 rows, 2403 columns and 8831 nonzeros
Model fingerprint: 0xfe4a30e9
Coefficient statistics:
  Matrix range     [3e-02, 3e+03]
  Objective range  [1e+00, 1e+00]
  Bounds range     [3e-03, 2e+00]
  RHS range        [3e-03, 3e+01]
Presolve removed 3003 rows and 1393 columns
Presolve time: 0.00s
Presolved: 550 rows, 1020 columns, 2480 nonzeros

Ordering time: 0.00s

Barrier statistics:
 AA' NZ     : 1.340e+03
 Factor NZ  : 4.800e+03 (roughly 1 MB of memory)
 Factor Ops : 6.290e+04 (less than 1 second per iteration)
 Threads    : 1

                  Objective                Residual
Iter       Primal          Dual         Primal    Dual     Compl     Time
   0   3.02359922e+06 -2.30916879e+07  1.08e+01 9.09e+03  1.16e+05     0s
   1   1.55669418e+05 -1.13569546e+07  5.42e-01 7.28e-11  1.08e+04     0s
   2   4.80633828e+04 -2.91312094e+06  1.74e-01 1.09e-10  2.29e+03     0s
   3   1.96172651e+04 -4.51013650e+05  1.72e-04 6.91e-11  2.68e+02     0s
   4   8.76414962e+03 -1.72137601e+04  6.96e-11 6.55e-11  1.48e+01     0s
   5   8.63395045e+02 -4.52888427e+03  2.67e-11 2.26e-11  3.06e+00     0s
   6   3.73965084e+02 -1.74492362e+03  6.71e-12 1.20e-11  1.20e+00     0s
   7   2.19337647e+02 -2.46692207e+02  1.22e-12 2.07e-11  2.65e-01     0s
   8   8.99121536e+01 -5.17920506e+01  1.90e-12 1.37e-11  8.05e-02     0s
   9   4.84762721e+01  1.86421861e+01  1.33e-12 1.10e-11  1.70e-02     0s
  10   4.03675221e+01  2.98543843e+01  3.90e-13 1.14e-11  5.97e-03     0s
  11   3.80898395e+01  3.46997231e+01  2.65e-13 1.87e-11  1.93e-03     0s
  12   3.70608793e+01  3.60288261e+01  1.05e-12 7.95e-12  5.86e-04     0s
  13   3.67819775e+01  3.65360753e+01  4.21e-12 1.45e-11  1.40e-04     0s
  14   3.67539616e+01  3.67119120e+01  1.14e-11 1.86e-11  2.39e-05     0s
  15   3.67503070e+01  3.67469896e+01  1.56e-10 1.20e-11  1.88e-06     0s
  16   3.67498316e+01  3.67497311e+01  1.16e-11 2.10e-11  5.71e-08     0s
  17   3.67498196e+01  3.67498196e+01  2.74e-10 2.18e-11  7.56e-12     0s
  18   3.67498196e+01  3.67498196e+01  4.76e-11 1.46e-11  1.89e-17     0s

Barrier solved model in 18 iterations and 0.02 seconds (0.01 work units)
Optimal objective 3.67498196e+01

Crossover log...

     132 DPushes remaining with DInf 0.0000000e+00                 0s
       0 DPushes remaining with DInf 0.0000000e+00                 0s

      15 PPushes remaining with PInf 0.0000000e+00                 0s
       0 PPushes remaining with PInf 0.0000000e+00                 0s

  Push phase complete: Pinf 0.0000000e+00, Dinf 7.7817006e-13      0s

Iteration    Objective       Primal Inf.    Dual Inf.      Time
      25    3.6749820e+01   0.000000e+00   0.000000e+00      0s

Use crossover to convert LP symmetric solution to basic solution...
Crossover log...

       0 DPushes remaining with DInf 0.0000000e+00                 0s

       9 PPushes remaining with PInf 0.0000000e+00                 0s
       0 PPushes remaining with PInf 0.0000000e+00                 0s

  Push phase complete: Pinf 0.0000000e+00, Dinf 7.3658701e-13      0s

Iteration    Objective       Primal Inf.    Dual Inf.      Time
      47    3.6749820e+01   0.000000e+00   0.000000e+00      0s

Solved in 47 iterations and 0.06 seconds (0.01 work units)
Optimal objective  3.674981960e+01

Gurobi 11.0.0 (linux64) logging started Wed Jul 24 18:31:27 2024

Set parameter LogFile to value "/lustre1/scratch/348/vsc34888/JointResearch/05.Models/06.Benchmarking/M.Random_forest/RTS24_mod1_ByStages_nc10/openStarNet_RTS24_mod1_ByStages_nc10.log"
Set parameter Method to value 2
Set parameter MIPFocus to value 1
Set parameter Presolve to value 2
Set parameter RINS to value 100
Set parameter MIPGap to value 0.01
Set parameter Threads to value 36
Set parameter TimeLimit to value 259200
Set parameter IterationLimit to value 760000000
Gurobi Optimizer version 11.0.0 build v11.0.0rc2 (linux64 - "Rocky Linux 8.9 (Green Obsidian)")

CPU model: Intel(R) Xeon(R) Gold 6240 CPU @ 2.60GHz, instruction set [SSE2|AVX|AVX2|AVX512]
Thread count: 36 physical cores, 36 logical processors, using up to 36 threads

Optimize a model with 3553 rows, 2424 columns and 9692 nonzeros
Model fingerprint: 0x04e9d11e
Variable types: 2403 continuous, 21 integer (21 binary)
Coefficient statistics:
  Matrix range     [3e-02, 3e+03]
  Objective range  [1e+00, 1e+00]
  Bounds range     [3e-03, 2e+00]
  RHS range        [3e-03, 1e+00]
Presolve removed 2113 rows and 1213 columns
Presolve time: 0.05s
Presolved: 1440 rows, 1211 columns, 5200 nonzeros
Variable types: 1190 continuous, 21 integer (21 binary)
Found heuristic solution: objective 184.7602694
Root relaxation presolve removed 8 rows and 8 columns
Root relaxation presolved: 1432 rows, 1203 columns, 5184 nonzeros

Root barrier log...

Ordering time: 0.02s

Barrier statistics:
 AA' NZ     : 2.390e+04
 Factor NZ  : 1.200e+05 (roughly 2 MB of memory)
 Factor Ops : 1.516e+07 (less than 1 second per iteration)
 Threads    : 36

                  Objective                Residual
Iter       Primal          Dual         Primal    Dual     Compl     Time
   0   1.87426311e+06 -5.51478802e+07  1.38e+01 7.06e+02  9.31e+04     0s
   1   4.50453381e+05 -2.47389782e+07  3.25e+00 2.03e-10  2.08e+04     0s
   2   4.79355963e+04 -1.28672668e+07  3.23e-01 9.74e-11  4.78e+03     0s
   3   1.18511374e+04 -4.02235907e+06  3.02e-02 6.33e-11  1.24e+03     0s
   4   7.67562893e+03 -1.41023052e+06  1.24e-04 1.55e-11  4.19e+02     0s
   5   4.51473577e+03 -1.12076047e+05  3.06e-08 1.60e-11  3.44e+01     0s
   6   7.54049241e+02 -1.24453475e+04  5.55e-10 1.46e-11  3.90e+00     0s
   7   3.61634088e+02 -2.73651295e+03  1.98e-11 1.82e-12  9.15e-01     0s
   8   1.16788423e+02 -4.70808417e+02  6.93e-13 7.28e-12  1.74e-01     0s
   9   5.80919899e+01 -7.52660364e+01  1.89e-13 3.64e-12  3.94e-02     0s
  10   3.01504999e+01 -3.82287598e+01  1.73e-13 3.64e-12  2.02e-02     0s
  11   2.34562034e+01  6.98700999e+00  1.03e-13 3.64e-12  4.86e-03     0s
  12   2.01967456e+01  1.76688546e+01  2.20e-13 7.28e-12  7.47e-04     0s
  13   1.96762493e+01  1.93878672e+01  1.43e-12 1.82e-12  8.52e-05     0s
  14   1.95778642e+01  1.95364937e+01  3.33e-10 7.28e-12  1.22e-05     0s
  15   1.95648833e+01  1.95553404e+01  1.21e-10 7.28e-12  2.82e-06     0s
  16   1.95606669e+01  1.95600730e+01  5.57e-10 3.64e-12  1.75e-07     0s
  17   1.95604972e+01  1.95604716e+01  1.12e-09 7.28e-12  7.57e-09     0s
  18   1.95604761e+01  1.95604757e+01  1.38e-08 3.64e-12  1.04e-10     0s
  19   1.95604759e+01  1.95604758e+01  4.62e-09 7.28e-12  1.48e-12     0s

Barrier solved model in 19 iterations and 0.30 seconds (0.06 work units)
Optimal objective 1.95604759e+01


Root relaxation: objective 1.956048e+01, 115 iterations, 0.19 seconds (0.03 work units)

    Nodes    |    Current Node    |     Objective Bounds      |     Work
 Expl Unexpl |  Obj  Depth IntInf | Incumbent    BestBd   Gap | It/Node Time

     0     0   19.56048    0    8  184.76027   19.56048  89.4%     -    0s
H    0     0                     154.5970304   19.83150  87.2%     -    0s
     0     0   19.84676    0   10  154.59703   19.84676  87.2%     -    0s
H    0     0                     138.0340134   19.84676  85.6%     -    0s
     0     0   19.84676    0   10  138.03401   19.84676  85.6%     -    0s
     0     0   19.95944    0    6  138.03401   19.95944  85.5%     -    0s
     0     0   19.95953    0    8  138.03401   19.95953  85.5%     -    0s
     0     0   19.95953    0    8  138.03401   19.95953  85.5%     -    0s
H    0     0                     121.2908767   19.95953  83.5%     -    0s
H    0     0                     110.9376841   19.95953  82.0%     -    0s
     0     0   19.96137    0    8  110.93768   19.96137  82.0%     -    0s
H    0     0                      96.2130648   19.97090  79.2%     -    0s
     0     0   19.97090    0    8   96.21306   19.97090  79.2%     -    0s
     0     0   19.97090    0    8   96.21306   19.97090  79.2%     -    0s
H    0     0                      42.2559796   19.97090  52.7%     -    0s
     0     2   19.97090    0    8   42.25598   19.97090  52.7%     -    0s
*   60    58               5      38.8502699   21.06823  45.8%  27.7    0s
H  124   124                      38.4267282   21.12639  45.0%  38.8    0s
H  134   154                      37.3890149   21.12639  43.5%  38.4    1s
H  146   154                      36.7498196   21.39088  41.8%  39.9    1s
H  202   173                      36.7498193   21.39088  41.8%  43.5    1s

Cutting planes:
  Gomory: 2
  MIR: 19

Explored 1660 nodes (52033 simplex iterations) in 2.73 seconds (2.16 work units)
Thread count was 36 (of 36 available processors)

Solution count 10: 36.7498 37.389 38.4267 ... 154.597

Optimal solution found (tolerance 1.00e-02)
Best objective 3.674981925072e+01, best bound 3.674981925072e+01, gap 0.0000%

Gurobi 11.0.0 (linux64) logging started Wed Jul 24 18:31:30 2024

Set parameter LogFile to value "/lustre1/scratch/348/vsc34888/JointResearch/05.Models/06.Benchmarking/M.Random_forest/RTS24_mod1_ByStages_nc10/openStarNet_RTS24_mod1_ByStages_nc10.log"
Set parameter Method to value 2
Set parameter MIPFocus to value 1
Set parameter Presolve to value 2
Set parameter RINS to value 100
Set parameter MIPGap to value 0.01
Set parameter Threads to value 36
Set parameter TimeLimit to value 259200
Set parameter IterationLimit to value 760000000
Gurobi Optimizer version 11.0.0 build v11.0.0rc2 (linux64 - "Rocky Linux 8.9 (Green Obsidian)")

CPU model: Intel(R) Xeon(R) Gold 6240 CPU @ 2.60GHz, instruction set [SSE2|AVX|AVX2|AVX512]
Thread count: 36 physical cores, 36 logical processors, using up to 36 threads

Optimize a model with 3553 rows, 2403 columns and 8831 nonzeros
Model fingerprint: 0x0a7c1b7e
Coefficient statistics:
  Matrix range     [3e-02, 3e+03]
  Objective range  [1e+00, 1e+00]
  Bounds range     [3e-03, 2e+00]
  RHS range        [3e-03, 3e+01]
Presolve removed 2893 rows and 1273 columns
Presolve time: 0.00s
Presolved: 660 rows, 1140 columns, 2910 nonzeros

Ordering time: 0.00s

Barrier statistics:
 AA' NZ     : 2.054e+03
 Factor NZ  : 5.842e+03 (roughly 1 MB of memory)
 Factor Ops : 7.885e+04 (less than 1 second per iteration)
 Threads    : 1

                  Objective                Residual
Iter       Primal          Dual         Primal    Dual     Compl     Time
   0   2.87437159e+05 -5.47060375e+06  2.19e+00 6.49e+02  8.14e+03     0s
   1   4.60128006e+04 -1.57549553e+06  2.47e-01 1.34e-11  1.16e+03     0s
   2   1.21535821e+04 -1.78247828e+05  3.92e-06 9.61e-12  9.94e+01     0s
   3   1.98735833e+03 -6.38752753e+03  1.35e-13 4.55e-12  4.37e+00     0s
   4   3.70927055e+02 -8.37972873e+02  7.33e-14 3.64e-12  6.31e-01     0s
   5   2.00914141e+02 -3.55335742e+02  5.60e-14 3.64e-12  2.90e-01     0s
   6   1.01435303e+02 -1.80529181e+02  1.14e-13 1.82e-12  1.47e-01     0s
   7   5.10288610e+01  1.57467893e+01  1.36e-12 1.82e-12  1.84e-02     0s
   8   3.82622891e+01  3.50074416e+01  2.85e-12 3.64e-12  1.70e-03     0s
   9   3.69408839e+01  3.64150196e+01  3.14e-10 3.64e-12  2.74e-04     0s
  10   3.67885296e+01  3.66456524e+01  1.99e-10 3.64e-12  7.46e-05     0s
  11   3.67582836e+01  3.67069938e+01  1.42e-10 1.82e-12  2.68e-05     0s
  12   3.67501581e+01  3.67468252e+01  8.20e-11 3.64e-12  1.74e-06     0s
  13   3.67498470e+01  3.67497379e+01  7.05e-11 3.64e-12  5.69e-08     0s
  14   3.67498196e+01  3.67498195e+01  3.42e-10 3.64e-12  5.69e-11     0s
  15   3.67498196e+01  3.67498196e+01  3.01e-10 7.28e-12  5.69e-14     0s

Barrier solved model in 15 iterations and 0.02 seconds (0.01 work units)
Optimal objective 3.67498196e+01

Crossover log...

     126 DPushes remaining with DInf 0.0000000e+00                 0s
       0 DPushes remaining with DInf 0.0000000e+00                 0s

      15 PPushes remaining with PInf 0.0000000e+00                 0s
       0 PPushes remaining with PInf 0.0000000e+00                 0s

  Push phase complete: Pinf 0.0000000e+00, Dinf 7.4148153e-13      0s

Iteration    Objective       Primal Inf.    Dual Inf.      Time
      19    3.6749820e+01   0.000000e+00   0.000000e+00      0s

Use crossover to convert LP symmetric solution to basic solution...
Crossover log...

      13 PPushes remaining with PInf 0.0000000e+00                 0s
       0 PPushes remaining with PInf 0.0000000e+00                 0s

  Push phase complete: Pinf 0.0000000e+00, Dinf 1.0666693e-12      0s

Iteration    Objective       Primal Inf.    Dual Inf.      Time
      35    3.6749820e+01   0.000000e+00   0.000000e+00      0s

Solved in 35 iterations and 0.03 seconds (0.01 work units)
Optimal objective  3.674981960e+01
